min: c;

c = 3.12074256074567 * u5_t4_h2 + 3.12074256074567 * u5_t7_h2 + 3.26164272347754 * u5_t4_h3 + 3.26164272347754 * u5_t7_h3 + 2.99071686468326 * u5_t1_h4 + 2.99071686468326 * u5_t3_h4 + 2.99071686468326 * u5_t4_h4 + 2.99071686468326 * u5_t7_h4 + 3.78911484916221 * u5_t1_h5 + 3.78911484916221 * u5_t3_h5 + 3.78911484916221 * u5_t4_h5 + 3.78911484916221 * u5_t7_h5 + 3.93584930284598 * u5_t1_h6 + 3.93584930284598 * u5_t3_h6 + 3.93584930284598 * u5_t4_h6 + 3.93584930284598 * u5_t6_h6 + 3.93584930284598 * u5_t7_h6 + 4.3918235403584 * u5_t1_h7 + 4.3918235403584 * u5_t3_h7 + 4.3918235403584 * u5_t4_h7 + 4.3918235403584 * u5_t6_h7 + 5.35657491584115 * u5_t1_h8 + 5.35657491584115 * u5_t3_h8 + 5.35657491584115 * u5_t4_h8 + 5.35657491584115 * u5_t6_h8 + 5.27440760790772 * u5_t1_h9 + 5.27440760790772 * u5_t3_h9 + 5.27440760790772 * u5_t4_h9 + 5.27440760790772 * u5_t6_h9 + 5.43940289782185 * u5_t1_h10 + 5.43940289782185 * u5_t3_h10 + 5.43940289782185 * u5_t4_h10 + 5.43940289782185 * u5_t6_h10 + 3.82322112434152 * u5_t1_h11 + 3.82322112434152 * u5_t3_h11 + 3.82322112434152 * u5_t4_h11 + 3.82322112434152 * u5_t6_h11 + 6.00344874896901 * u5_t1_h12 + 6.00344874896901 * u5_t3_h12 + 6.00344874896901 * u5_t4_h12 + 6.00344874896901 * u5_t6_h12 + 4.26308831924117 * u5_t1_h13 + 4.26308831924117 * u5_t3_h13 + 4.26308831924117 * u5_t4_h13 + 4.26308831924117 * u5_t6_h13 + 4.26308831924117 * u5_t8_h13 + 5.82226909964812 * u5_t1_h14 + 5.82226909964812 * u5_t3_h14 + 5.82226909964812 * u5_t4_h14 + 5.82226909964812 * u5_t6_h14 + 5.82226909964812 * u5_t8_h14 + 6.20644392433416 * u5_t1_h15 + 6.20644392433416 * u5_t3_h15 + 6.20644392433416 * u5_t4_h15 + 6.20644392433416 * u5_t6_h15 + 6.20644392433416 * u5_t8_h15 + 6.20644392433416 * u5_t9_h15 + 5.63174696943247 * u5_t1_h16 + 5.63174696943247 * u5_t3_h16 + 5.63174696943247 * u5_t4_h16 + 5.63174696943247 * u5_t5_h16 + 5.63174696943247 * u5_t6_h16 + 5.63174696943247 * u5_t8_h16 + 5.63174696943247 * u5_t9_h16 + 6.63198305899198 * u5_t1_h17 + 6.63198305899198 * u5_t5_h17 + 6.63198305899198 * u5_t6_h17 + 6.63198305899198 * u5_t8_h17 + 6.63198305899198 * u5_t9_h17 + 6.63198305899198 * u5_t10_h17 + 6.59344070270602 * u5_t1_h18 + 6.59344070270602 * u5_t2_h18 + 6.59344070270602 * u5_t5_h18 + 6.59344070270602 * u5_t6_h18 + 6.59344070270602 * u5_t9_h18 + 6.59344070270602 * u5_t10_h18 + 5.6437680611657 * u5_t1_h19 + 5.6437680611657 * u5_t2_h19 + 5.6437680611657 * u5_t5_h19 + 5.6437680611657 * u5_t9_h19 + 5.6437680611657 * u5_t10_h19 + 5.93098606117518 * u5_t1_h20 + 5.93098606117518 * u5_t2_h20 + 5.93098606117518 * u5_t5_h20 + 5.93098606117518 * u5_t9_h20 + 5.93098606117518 * u5_t10_h20 + 5.4217725742733 * u5_t2_h21 + 5.4217725742733 * u5_t5_h21 + 5.4217725742733 * u5_t9_h21 + 5.4217725742733 * u5_t10_h21 + 5.15051876347091 * u5_t2_h22 + 5.15051876347091 * u5_t5_h22 + 5.15051876347091 * u5_t9_h22 + 5.15051876347091 * u5_t10_h22 + 5.12666115880164 * u5_t5_h23 + 5.12666115880164 * u5_t9_h23 + 5.12666115880164 * u5_t10_h23;
0 <= u5_t1_h4 <= 1;
0 <= u5_t1_h5 <= 1;
0 <= u5_t1_h6 <= 1;
0 <= u5_t1_h7 <= 1;
0 <= u5_t1_h8 <= 1;
0 <= u5_t1_h9 <= 1;
0 <= u5_t1_h10 <= 1;
0 <= u5_t1_h11 <= 1;
0 <= u5_t1_h12 <= 1;
0 <= u5_t1_h13 <= 1;
0 <= u5_t1_h14 <= 1;
0 <= u5_t1_h15 <= 1;
0 <= u5_t1_h16 <= 1;
0 <= u5_t1_h17 <= 1;
0 <= u5_t1_h18 <= 1;
0 <= u5_t1_h19 <= 1;
0 <= u5_t1_h20 <= 1;
u5_t1_h4 + u5_t1_h5 + u5_t1_h6 + u5_t1_h7 + u5_t1_h8 + u5_t1_h9 + u5_t1_h10 + u5_t1_h11 + u5_t1_h12 + u5_t1_h13 + u5_t1_h14 + u5_t1_h15 + u5_t1_h16 + u5_t1_h17 + u5_t1_h18 + u5_t1_h19 + u5_t1_h20 = 1;
0 <= u5_t2_h18 <= 1;
0 <= u5_t2_h19 <= 1;
0 <= u5_t2_h20 <= 1;
0 <= u5_t2_h21 <= 1;
0 <= u5_t2_h22 <= 1;
u5_t2_h18 + u5_t2_h19 + u5_t2_h20 + u5_t2_h21 + u5_t2_h22 = 3;
0 <= u5_t3_h4 <= 1;
0 <= u5_t3_h5 <= 1;
0 <= u5_t3_h6 <= 1;
0 <= u5_t3_h7 <= 1;
0 <= u5_t3_h8 <= 1;
0 <= u5_t3_h9 <= 1;
0 <= u5_t3_h10 <= 1;
0 <= u5_t3_h11 <= 1;
0 <= u5_t3_h12 <= 1;
0 <= u5_t3_h13 <= 1;
0 <= u5_t3_h14 <= 1;
0 <= u5_t3_h15 <= 1;
0 <= u5_t3_h16 <= 1;
u5_t3_h4 + u5_t3_h5 + u5_t3_h6 + u5_t3_h7 + u5_t3_h8 + u5_t3_h9 + u5_t3_h10 + u5_t3_h11 + u5_t3_h12 + u5_t3_h13 + u5_t3_h14 + u5_t3_h15 + u5_t3_h16 = 1;
0 <= u5_t4_h2 <= 1;
0 <= u5_t4_h3 <= 1;
0 <= u5_t4_h4 <= 1;
0 <= u5_t4_h5 <= 1;
0 <= u5_t4_h6 <= 1;
0 <= u5_t4_h7 <= 1;
0 <= u5_t4_h8 <= 1;
0 <= u5_t4_h9 <= 1;
0 <= u5_t4_h10 <= 1;
0 <= u5_t4_h11 <= 1;
0 <= u5_t4_h12 <= 1;
0 <= u5_t4_h13 <= 1;
0 <= u5_t4_h14 <= 1;
0 <= u5_t4_h15 <= 1;
0 <= u5_t4_h16 <= 1;
u5_t4_h2 + u5_t4_h3 + u5_t4_h4 + u5_t4_h5 + u5_t4_h6 + u5_t4_h7 + u5_t4_h8 + u5_t4_h9 + u5_t4_h10 + u5_t4_h11 + u5_t4_h12 + u5_t4_h13 + u5_t4_h14 + u5_t4_h15 + u5_t4_h16 = 3;
0 <= u5_t5_h16 <= 1;
0 <= u5_t5_h17 <= 1;
0 <= u5_t5_h18 <= 1;
0 <= u5_t5_h19 <= 1;
0 <= u5_t5_h20 <= 1;
0 <= u5_t5_h21 <= 1;
0 <= u5_t5_h22 <= 1;
0 <= u5_t5_h23 <= 1;
u5_t5_h16 + u5_t5_h17 + u5_t5_h18 + u5_t5_h19 + u5_t5_h20 + u5_t5_h21 + u5_t5_h22 + u5_t5_h23 = 2;
0 <= u5_t6_h6 <= 1;
0 <= u5_t6_h7 <= 1;
0 <= u5_t6_h8 <= 1;
0 <= u5_t6_h9 <= 1;
0 <= u5_t6_h10 <= 1;
0 <= u5_t6_h11 <= 1;
0 <= u5_t6_h12 <= 1;
0 <= u5_t6_h13 <= 1;
0 <= u5_t6_h14 <= 1;
0 <= u5_t6_h15 <= 1;
0 <= u5_t6_h16 <= 1;
0 <= u5_t6_h17 <= 1;
0 <= u5_t6_h18 <= 1;
u5_t6_h6 + u5_t6_h7 + u5_t6_h8 + u5_t6_h9 + u5_t6_h10 + u5_t6_h11 + u5_t6_h12 + u5_t6_h13 + u5_t6_h14 + u5_t6_h15 + u5_t6_h16 + u5_t6_h17 + u5_t6_h18 = 2;
0 <= u5_t7_h2 <= 1;
0 <= u5_t7_h3 <= 1;
0 <= u5_t7_h4 <= 1;
0 <= u5_t7_h5 <= 1;
0 <= u5_t7_h6 <= 1;
u5_t7_h2 + u5_t7_h3 + u5_t7_h4 + u5_t7_h5 + u5_t7_h6 = 1;
0 <= u5_t8_h13 <= 1;
0 <= u5_t8_h14 <= 1;
0 <= u5_t8_h15 <= 1;
0 <= u5_t8_h16 <= 1;
0 <= u5_t8_h17 <= 1;
u5_t8_h13 + u5_t8_h14 + u5_t8_h15 + u5_t8_h16 + u5_t8_h17 = 3;
0 <= u5_t9_h15 <= 1;
0 <= u5_t9_h16 <= 1;
0 <= u5_t9_h17 <= 1;
0 <= u5_t9_h18 <= 1;
0 <= u5_t9_h19 <= 1;
0 <= u5_t9_h20 <= 1;
0 <= u5_t9_h21 <= 1;
0 <= u5_t9_h22 <= 1;
0 <= u5_t9_h23 <= 1;
u5_t9_h15 + u5_t9_h16 + u5_t9_h17 + u5_t9_h18 + u5_t9_h19 + u5_t9_h20 + u5_t9_h21 + u5_t9_h22 + u5_t9_h23 = 1;
0 <= u5_t10_h17 <= 1;
0 <= u5_t10_h18 <= 1;
0 <= u5_t10_h19 <= 1;
0 <= u5_t10_h20 <= 1;
0 <= u5_t10_h21 <= 1;
0 <= u5_t10_h22 <= 1;
0 <= u5_t10_h23 <= 1;
u5_t10_h17 + u5_t10_h18 + u5_t10_h19 + u5_t10_h20 + u5_t10_h21 + u5_t10_h22 + u5_t10_h23 = 1;
